job_count = 32 ;
duration = [|11, 15, 2|28, 7, 7|17, 11, 2|13, 18, 6|18, 4, 3|28, 12, 7|15, 7, 3|22, 16, 5|10, 7, 3|6, 17, 1|3, 13, 9|21, 10, 5|5, 6, 5|5, 17, 4|26, 9, 4|29, 2, 8|28, 11, 8|12, 5, 1|19, 8, 8|4, 18, 6|20, 16, 3|21, 5, 5|24, 6, 4|11, 7, 5|12, 19, 4|19, 6, 7|14, 11, 1|24, 6, 9|26, 10, 6|4, 3, 6|15, 10, 9|16, 18, 2|] ;
machine_count = 3 ;
cost = [|11, 30, 37|10, 31, 37|11, 27, 44|18, 22, 52|11, 26, 34|18, 20, 53|10, 28, 38|12, 31, 46|16, 31, 45|14, 20, 40|17, 25, 58|15, 26, 34|17, 22, 53|18, 35, 40|12, 26, 44|17, 20, 58|18, 37, 58|11, 20, 45|19, 32, 34|17, 35, 43|19, 22, 38|16, 35, 37|18, 33, 41|11, 20, 59|15, 20, 40|19, 26, 32|17, 38, 43|15, 34, 49|17, 31, 47|19, 31, 56|19, 21, 40|14, 39, 36|] ;
deadline = [71, 71, 71, 71, 71, 71, 71, 71, 71, 71, 71, 71, 71, 71, 71, 71, 71, 71, 71, 71, 71, 71, 71, 71, 71, 71, 71, 71, 71, 71, 71, 71] ;
release = [0, 0, 0, 0, 0, 0, 0, 0, 0, 0, 0, 0, 0, 0, 0, 0, 0, 0, 0, 0, 0, 0, 0, 0, 0, 0, 0, 0, 0, 0, 0, 0] ;
resource = [|7, 7, 7|1, 1, 1|4, 4, 4|8, 8, 8|9, 9, 9|7, 7, 7|5, 5, 5|6, 6, 6|2, 2, 2|6, 6, 6|1, 1, 1|3, 3, 3|8, 8, 8|7, 7, 7|8, 8, 8|9, 9, 9|4, 4, 4|5, 5, 5|2, 2, 2|8, 8, 8|1, 1, 1|9, 9, 9|1, 1, 1|4, 4, 4|6, 6, 6|2, 2, 2|7, 7, 7|9, 9, 9|6, 6, 6|9, 9, 9|8, 8, 8|3, 3, 3|] ;
capacities = [10, 10, 10] ;
